<?xml version = "1.0" standalone="yes"?>
<!-- This file has been generated by DOcplex version 2.23.222  -->
<CPLEXSolution version="1.0">
 <header
   problemName="CVRP"
   objectiveValue="10122.6"
  />
 <variables>
  <variable name="x_0_1" index="0" value="1.00000"/>
  <variable name="x_0_2" index="1" value="1.00000"/>
  <variable name="x_0_3" index="2" value="1.00000"/>
  <variable name="x_0_5" index="4" value="1.00000"/>
  <variable name="x_0_6" index="5" value="1.00000"/>
  <variable name="x_0_9" index="8" value="1.00000"/>
  <variable name="x_0_10" index="9" value="1.00000"/>
  <variable name="x_0_12" index="11" value="1.00000"/>
  <variable name="x_0_13" index="12" value="1.00000"/>
  <variable name="x_0_14" index="13" value="1.00000"/>
  <variable name="x_0_15" index="14" value="1.00000"/>
  <variable name="x_1_0" index="17" value="1.00000"/>
  <variable name="x_2_16" index="49" value="1.00000"/>
  <variable name="x_3_0" index="51" value="1.00000"/>
  <variable name="x_4_0" index="68" value="1.00000"/>
  <variable name="x_5_0" index="85" value="1.00000"/>
  <variable name="x_6_0" index="102" value="1.00000"/>
  <variable name="x_7_0" index="119" value="1.00000"/>
  <variable name="x_8_0" index="136" value="1.00000"/>
  <variable name="x_9_4" index="157" value="1.00000"/>
  <variable name="x_10_0" index="170" value="1.00000"/>
  <variable name="x_11_0" index="187" value="1.00000"/>
  <variable name="x_12_0" index="204" value="1.00000"/>
  <variable name="x_13_0" index="221" value="1.00000"/>
  <variable name="x_14_17" index="254" value="1.00000"/>
  <variable name="x_15_7" index="262" value="1.00000"/>
  <variable name="x_16_11" index="283" value="1.00000"/>
  <variable name="x_17_8" index="297" value="1.00000"/>
  <variable name="u_1" index="306" value="32.00000"/>
  <variable name="u_2" index="307" value="1.00000"/>
  <variable name="u_3" index="308" value="29.00000"/>
  <variable name="u_4" index="309" value="41.00000"/>
  <variable name="u_5" index="310" value="41.00000"/>
  <variable name="u_6" index="311" value="33.00000"/>
  <variable name="u_7" index="312" value="41.00000"/>
  <variable name="u_8" index="313" value="41.00000"/>
  <variable name="u_9" index="314" value="30.00000"/>
  <variable name="u_10" index="315" value="27.00000"/>
  <variable name="u_11" index="316" value="41.00000"/>
  <variable name="u_12" index="317" value="34.00000"/>
  <variable name="u_13" index="318" value="34.00000"/>
  <variable name="u_14" index="319" value="15.00000"/>
  <variable name="u_15" index="320" value="30.00000"/>
  <variable name="u_16" index="321" value="21.00000"/>
  <variable name="u_17" index="322" value="23.00000"/>
 </variables>
</CPLEXSolution>
